c description: Random 3-CNF over 18 variables and 77 clauses
c generator: CNFgen (0.9.2)
c copyright: (C) 2012-2022 Massimo Lauria <massimo.lauria@uniroma1.it>
c url: https://massimolauria.net/cnfgen
c command line: cnfgen --output CNF_4.28/18_bit_77_70.cnf randkcnf 3 18 77
c
p cnf 18 77
4 6 13 0
2 6 18 0
-8 -12 13 0
3 5 13 0
-5 -14 18 0
10 13 -18 0
6 7 17 0
-7 11 -18 0
2 -4 15 0
1 6 -10 0
13 14 -16 0
-4 5 15 0
-6 -15 -17 0
3 -10 11 0
4 -11 -17 0
-2 -12 -17 0
-12 -14 17 0
-3 12 -18 0
-1 -10 13 0
-1 8 -14 0
15 -16 -17 0
-3 9 -15 0
-3 -12 15 0
7 -8 14 0
9 10 11 0
8 11 18 0
-4 -8 17 0
-2 10 -11 0
-5 6 8 0
10 13 14 0
-1 13 16 0
-3 -11 18 0
5 7 -17 0
4 -14 15 0
9 13 18 0
-3 -16 18 0
2 11 18 0
2 7 10 0
-4 -7 -10 0
-7 10 -13 0
7 9 11 0
9 -15 17 0
3 15 -17 0
7 16 18 0
4 -9 -17 0
1 -17 18 0
9 -10 -13 0
11 14 15 0
-6 -7 13 0
3 9 -16 0
-4 15 -16 0
-3 5 8 0
-8 -12 -14 0
1 2 6 0
10 11 17 0
12 14 -16 0
-3 -10 -16 0
-6 -8 -17 0
3 7 18 0
3 -4 8 0
1 7 -14 0
-6 -7 14 0
-8 15 -17 0
2 -7 9 0
-4 -6 16 0
10 -14 18 0
-4 -13 -17 0
1 2 -9 0
-2 4 18 0
4 6 16 0
15 16 -17 0
7 -12 17 0
1 -12 18 0
-6 12 -13 0
-4 -7 -8 0
8 12 -16 0
-3 -15 18 0
